
Gurobi 9.5.0 (linux64) logging started Mon Dec  4 12:47:28 2023

Set parameter LogFile to value "/lustre1/scratch/348/vsc34888/JointResearch/05.Models/06.Benchmarking/E.Representative_days_based_on_Line_Benefits_OptModel/RTS24_mod1_ByStages_nc400/openStarNet_RTS24_mod1_ByStages_nc400.log"
Set parameter Method to value 2
Set parameter MIPFocus to value 1
Set parameter Presolve to value 2
Set parameter RINS to value 100
Set parameter MIPGap to value 0.01
Set parameter Threads to value 36
Set parameter TimeLimit to value 259200
Set parameter IterationLimit to value 760000000
Gurobi Optimizer version 9.5.0 build v9.5.0rc5 (linux64)
Thread count: 36 physical cores, 36 logical processors, using up to 36 threads
Optimize a model with 142358 rows, 96068 columns and 388051 nonzeros
Model fingerprint: 0x2ccd8339
Variable types: 96047 continuous, 21 integer (21 binary)
Coefficient statistics:
  Matrix range     [1e-03, 8e+02]
  Objective range  [1e+00, 1e+00]
  Bounds range     [4e-05, 3e+00]
  RHS range        [4e-05, 3e+00]
Presolve removed 84738 rows and 48672 columns
Presolve time: 0.60s
Presolved: 57620 rows, 47396 columns, 208036 nonzeros
Variable types: 47375 continuous, 21 integer (21 binary)
Root relaxation presolved: 57620 rows, 47396 columns, 208036 nonzeros

Root barrier log...

Ordering time: 0.01s

Barrier statistics:
 Dense cols : 21
 AA' NZ     : 3.863e+05
 Factor NZ  : 1.145e+06 (roughly 50 MB of memory)
 Factor Ops : 2.714e+07 (less than 1 second per iteration)
 Threads    : 35

                  Objective                Residual
Iter       Primal          Dual         Primal    Dual     Compl     Time
   0   6.65434712e+05 -3.05312760e+08  5.32e+00 1.03e+02  6.41e+03     1s
   1   1.07368199e+05 -7.92556398e+07  7.08e-01 2.38e-08  8.96e+02     1s
   2   4.44792133e+04 -4.36405507e+07  1.88e-01 2.07e-08  3.80e+02     1s
   3   2.31203252e+04 -4.85551606e+06  7.63e-03 1.10e-08  3.68e+01     1s
   4   1.81165126e+04 -4.01409355e+05  5.24e-04 8.78e-10  3.13e+00     1s
   5   6.29255199e+03 -9.10655677e+04  3.84e-05 1.79e-10  7.25e-01     1s
   6   1.95444363e+03 -2.05648466e+04  8.08e-06 3.52e-11  1.68e-01     1s
   7   8.19819467e+02 -8.43426940e+03  2.08e-06 1.39e-11  6.89e-02     1s
   8   3.19241180e+02 -1.75611488e+03  9.00e-08 2.82e-12  1.55e-02     1s
   9   2.25325943e+02 -6.00223765e+02  4.15e-08 1.06e-12  6.15e-03     1s
  10   1.45936287e+02 -2.20350793e+02  1.53e-08 4.71e-13  2.73e-03     1s
  11   1.01393620e+02 -3.14311890e+01  5.38e-09 4.55e-13  9.90e-04     1s
  12   8.44801729e+01  2.16786302e+01  2.72e-09 4.55e-13  4.68e-04     1s
  13   7.89885624e+01  3.71932951e+01  1.93e-09 2.27e-13  3.11e-04     1s
  14   7.52797411e+01  4.54233161e+01  1.40e-09 4.55e-13  2.22e-04     1s
  15   7.33204642e+01  4.85582545e+01  1.12e-09 4.55e-13  1.84e-04     1s
  16   7.06168977e+01  5.52407333e+01  7.37e-10 2.27e-13  1.15e-04     1s
  17   6.92708759e+01  5.87796743e+01  5.36e-10 4.55e-13  7.82e-05     1s
  18   6.82318124e+01  6.02438417e+01  3.87e-10 9.09e-13  5.95e-05     1s
  19   6.77580372e+01  6.29558900e+01  3.23e-10 9.09e-13  3.58e-05     2s
  20   6.73104578e+01  6.34033940e+01  2.53e-10 9.09e-13  2.91e-05     2s
  21   6.68473153e+01  6.38745765e+01  1.82e-10 4.55e-13  2.21e-05     2s
  22   6.65157877e+01  6.42920052e+01  1.29e-10 9.09e-13  1.66e-05     2s
  23   6.62718333e+01  6.45753388e+01  8.87e-11 4.55e-13  1.26e-05     2s
  24   6.61537274e+01  6.48630905e+01  6.95e-11 9.09e-13  9.62e-06     2s
  25   6.59951457e+01  6.51045021e+01  8.88e-11 9.09e-13  6.64e-06     2s
  26   6.58700211e+01  6.53213691e+01  3.09e-11 4.55e-13  4.09e-06     2s
  27   6.57646307e+01  6.56213754e+01  3.16e-11 2.27e-13  1.07e-06     2s
  28   6.57471712e+01  6.56716118e+01  1.89e-11 1.82e-12  5.63e-07     2s
  29   6.57361974e+01  6.56831281e+01  1.28e-10 9.09e-13  3.95e-07     2s
  30   6.57329385e+01  6.57005639e+01  9.10e-11 4.55e-13  2.41e-07     2s
  31   6.57297073e+01  6.57117351e+01  5.46e-10 4.55e-13  1.34e-07     2s
  32   6.57286375e+01  6.57231403e+01  2.56e-10 4.55e-13  4.10e-08     2s
  33   6.57281541e+01  6.57261831e+01  3.57e-10 1.96e-12  1.47e-08     2s
  34   6.57279557e+01  6.57270180e+01  4.27e-10 1.83e-12  6.99e-09     2s
  35   6.57278423e+01  6.57272733e+01  9.63e-10 2.45e-11  4.24e-09     2s
  36   6.57278277e+01  6.57276538e+01  6.75e-10 1.51e-11  1.30e-09     2s
  37   6.57278077e+01  6.57276998e+01  8.51e-10 8.94e-12  8.04e-10     2s
  38   6.57278065e+01  6.57277856e+01  6.01e-10 9.62e-10  1.56e-10     2s
  39   6.57278050e+01  6.57277962e+01  7.24e-09 4.06e-10  6.56e-11     2s
  40   6.57278046e+01  6.57277965e+01  3.54e-09 3.79e-10  6.04e-11     2s
  41   6.57278044e+01  6.57278034e+01  1.09e-09 3.42e-11  7.22e-12     2s
  42   6.57278043e+01  6.57278043e+01  2.06e-09 9.09e-13  1.55e-13     2s

Barrier solved model in 42 iterations and 2.19 seconds (1.88 work units)
Optimal objective 6.57278043e+01


Root relaxation: objective 6.572780e+01, 8723 iterations, 1.96 seconds (1.59 work units)

    Nodes    |    Current Node    |     Objective Bounds      |     Work
 Expl Unexpl |  Obj  Depth IntInf | Incumbent    BestBd   Gap | It/Node Time

     0     0   65.72780    0   16          -   65.72780      -     -    4s
H    0     0                     112.9594435   65.72780  41.8%     -    5s
H    0     0                     104.0536629   66.66931  35.9%     -   12s
     0     0   66.66931    0   17  104.05366   66.66931  35.9%     -   12s
H    0     0                      97.4167964   66.66931  31.6%     -   13s
     0     0   66.69732    0   16   97.41680   66.69732  31.5%     -   14s
     0     0   66.88788    0   15   97.41680   66.88788  31.3%     -   17s
     0     0   66.89224    0   15   97.41680   66.89224  31.3%     -   19s
     0     0   66.89751    0   12   97.41680   66.89751  31.3%     -   20s
     0     0   66.89978    0   14   97.41680   66.89978  31.3%     -   20s
     0     0   66.90000    0   12   97.41680   66.90000  31.3%     -   21s
     0     0   66.90000    0   12   97.41680   66.90000  31.3%     -   21s
     0     0   66.98727    0   13   97.41680   66.98727  31.2%     -   23s
     0     0   67.02631    0   12   97.41680   67.02631  31.2%     -   25s
     0     0   67.02631    0   12   97.41680   67.02631  31.2%     -   25s
     0     0   67.76779    0   16   97.41680   67.76779  30.4%     -   26s
     0     0   67.76779    0   13   97.41680   67.76779  30.4%     -   27s
     0     0   67.76779    0   13   97.41680   67.76779  30.4%     -   32s
H    0     0                      86.7187855   67.76779  21.9%     -   38s
H    0     0                      85.1205887   67.76779  20.4%     -  174s
     0     2   67.76779    0   13   85.12059   67.76779  20.4%     -  175s
     3     8   67.76779    2   17   85.12059   67.76779  20.4%  4503  180s
    15    32   68.09717    4   15   85.12059   68.09717  20.0%  3476  186s
    63    94   68.84387    6   14   85.12059   68.36498  19.7%  3339  204s
    99   122   71.92860    7   13   85.12059   68.84892  19.1%  3341  239s
   135   154   71.63387    7   13   85.12059   70.05894  17.7%  3229  243s
   171   178   74.11507    8   12   85.12059   70.60376  17.1%  3001  246s
   256   200   76.28095    9   11   85.12059   71.57767  15.9%  2527  288s
   301   233   78.96704   10   10   85.12059   71.57767  15.9%  2359  291s
   356   240   83.56437   10   10   85.12059   71.57767  15.9%  2206  296s
   405   240   84.51276   11    9   85.12059   71.57767  15.9%  2168  302s
   470   265     cutoff   11        85.12059   71.57767  15.9%  2105  306s
   530   268     cutoff   12        85.12059   71.93430  15.5%  2023  375s
   678   279   80.60061    7   10   85.12059   71.93430  15.5%  1896  384s
   752   291   82.93297    8    9   85.12059   71.93430  15.5%  1841  388s
   834   287     cutoff    9        85.12059   71.94132  15.5%  1781  393s
   939   281     cutoff    9        85.12059   72.07113  15.3%  1733  399s
  1022   293   78.56616    9   11   85.12059   72.07113  15.3%  1723  405s
  1241   309   83.59503   10   10   85.12059   72.07113  15.3%  1651  414s
  1352   292     cutoff   11        85.12059   73.80652  13.3%  1616  420s
  1606   300   77.81967    9   11   85.12059   74.46199  12.5%  1564  429s
  1773   299   82.14701   11    9   85.12059   74.46199  12.5%  1499  434s
  1936   302     cutoff   14        85.12059   75.98753  10.7%  1451  440s
  2113   312   83.11609   11    9   85.12059   77.15272  9.36%  1408  445s
  2293   289   84.41355   12    8   85.12059   77.15272  9.36%  1368  706s
  2486   259   85.05108   13    7   85.12059   78.47264  7.81%  1327  712s
  2715   239   83.41417   13    7   85.12059   78.47264  7.81%  1291  719s
  2914   211     cutoff   16        85.12059   78.92335  7.28%  1270  725s
  3174   121   82.51443   14    6   85.12059   79.53834  6.56%  1223  730s
  3640     0     cutoff   11        85.12059   83.32636  2.11%  1140  737s

Cutting planes:
  Gomory: 1
  Implied bound: 273
  MIR: 1943
  Relax-and-lift: 123

Explored 3702 nodes (4204153 simplex iterations) in 737.52 seconds (1313.31 work units)
Thread count was 36 (of 36 available processors)

Solution count 5: 85.1206 86.7188 97.4168 ... 112.959

Optimal solution found (tolerance 1.00e-02)
Best objective 8.512058867057e+01, best bound 8.512058867057e+01, gap 0.0000%

Gurobi 9.5.0 (linux64) logging started Mon Dec  4 13:00:51 2023

Set parameter LogFile to value "/lustre1/scratch/348/vsc34888/JointResearch/05.Models/06.Benchmarking/E.Representative_days_based_on_Line_Benefits_OptModel/RTS24_mod1_ByStages_nc400/openStarNet_RTS24_mod1_ByStages_nc400.log"
Set parameter Method to value 2
Set parameter MIPFocus to value 1
Set parameter Presolve to value 2
Set parameter RINS to value 100
Set parameter MIPGap to value 0.01
Set parameter Threads to value 36
Set parameter TimeLimit to value 259200
Set parameter IterationLimit to value 760000000
No parameters matching 'relax_integrality' found
Gurobi Optimizer version 9.5.0 build v9.5.0rc5 (linux64)
Thread count: 36 physical cores, 36 logical processors, using up to 36 threads
Optimize a model with 142358 rows, 96047 columns and 354346 nonzeros
Model fingerprint: 0xd453c514
Coefficient statistics:
  Matrix range     [1e-03, 8e+02]
  Objective range  [1e+00, 1e+00]
  Bounds range     [4e-05, 3e+00]
  RHS range        [4e-05, 2e+01]
Presolve removed 117686 rows and 52762 columns
Presolve time: 0.18s
Presolved: 24672 rows, 43842 columns, 108962 nonzeros

Ordering time: 0.00s

Barrier statistics:
 AA' NZ     : 6.224e+04
 Factor NZ  : 2.051e+05 (roughly 23 MB of memory)
 Factor Ops : 2.685e+06 (less than 1 second per iteration)
 Threads    : 36

                  Objective                Residual
Iter       Primal          Dual         Primal    Dual     Compl     Time
   0   2.04371491e+06 -9.41373715e+07  3.00e+01 2.53e+01  1.37e+04     0s
   1   1.28394638e+05 -6.18220796e+07  1.51e+00 2.18e-12  1.37e+03     0s
   2   3.84485757e+04 -1.54291349e+07  2.27e-01 2.82e-12  2.55e+02     0s
   3   2.38608868e+04 -1.81734775e+06  1.06e-02 1.37e-12  2.56e+01     0s
   4   1.87769126e+04 -3.11381607e+05  7.93e-04 1.54e-12  4.50e+00     0s
   5   6.92432080e+03 -7.31328272e+04  2.48e-05 1.31e-12  1.09e+00     0s
   6   2.50778551e+03 -1.63340234e+04  5.69e-06 3.37e-13  2.56e-01     0s
   7   1.04352187e+03 -4.80251624e+03  1.64e-06 2.27e-13  7.95e-02     0s
   8   4.50641724e+02 -1.38900118e+03  3.57e-07 4.55e-13  2.50e-02     0s
   9   2.62498835e+02 -4.00318091e+02  1.09e-07 2.27e-13  9.01e-03     0s
  10   1.81175838e+02 -1.50217272e+02  5.07e-08 1.14e-13  4.50e-03     0s
  11   1.17736020e+02 -1.48924895e+01  1.32e-08 1.14e-13  1.80e-03     0s
  12   9.29622750e+01  5.72768138e+01  2.08e-09 1.14e-13  4.85e-04     0s
  13   8.82075779e+01  8.10619620e+01  7.48e-10 2.27e-13  9.71e-05     0s
  14   8.63057666e+01  8.35726921e+01  2.77e-10 2.27e-13  3.71e-05     0s
  15   8.55583562e+01  8.45434809e+01  9.78e-11 1.71e-13  1.38e-05     0s
  16   8.52814555e+01  8.48991882e+01  3.36e-11 1.14e-13  5.20e-06     0s
  17   8.51624529e+01  8.50587545e+01  8.25e-12 2.27e-13  1.41e-06     0s
  18   8.51248533e+01  8.51109360e+01  5.69e-12 4.55e-13  1.89e-07     0s
  19   8.51210518e+01  8.51194867e+01  1.17e-11 2.27e-13  2.13e-08     0s
  20   8.51205910e+01  8.51205832e+01  8.02e-12 2.27e-13  1.06e-10     1s
  21   8.51205887e+01  8.51205887e+01  6.06e-12 4.55e-13  3.42e-16     1s

Barrier solved model in 21 iterations and 0.51 seconds (0.46 work units)
Optimal objective 8.51205887e+01

Crossover log...

    5030 DPushes remaining with DInf 0.0000000e+00                 1s
       0 DPushes remaining with DInf 0.0000000e+00                 1s

    1198 PPushes remaining with PInf 0.0000000e+00                 1s
       0 PPushes remaining with PInf 0.0000000e+00                 1s

  Push phase complete: Pinf 0.0000000e+00, Dinf 1.1377362e-13      1s

Iteration    Objective       Primal Inf.    Dual Inf.      Time
    1255    8.5120589e+01   0.000000e+00   0.000000e+00      1s

Use crossover to convert LP symmetric solution to basic solution...
Crossover log...

       0 DPushes remaining with DInf 0.0000000e+00                 1s

     795 PPushes remaining with PInf 0.0000000e+00                 1s
       0 PPushes remaining with PInf 0.0000000e+00                 1s

  Push phase complete: Pinf 0.0000000e+00, Dinf 1.7298147e-13      1s

Iteration    Objective       Primal Inf.    Dual Inf.      Time
    2085    8.5120589e+01   0.000000e+00   0.000000e+00      1s

Solved in 2085 iterations and 0.81 seconds (0.64 work units)
Optimal objective  8.512058867e+01
